20	5
0	4	1	3	2	10
1	4	19	5	9	18
2	1	14
3	2	20	18
4	2	7	5
5	3	14	15	16
6	2	11	16
7	3	14	9	17
8	1	4
9	1	6
10	1	8
11	1	12
12	1	13
13	1	15
14	1	21
15	1	21
16	1	21
17	1	21
18	1	21
19	1	21
20	1	21
21	0
0	0	0	0	0	0	0
1	4	3	3	1	5	3
2	8	5	2	1	2	2
3	3	4	4	5	5	4
4	4	2	5	4	5	4
5	2	1	4	1	1	3
6	4	3	5	5	3	1
7	6	5	3	5	5	3
8	1	4	2	1	3	3
9	6	5	3	2	2	1
10	4	5	5	5	3	5
11	10	1	2	2	3	2
12	7	3	5	5	3	2
13	7	4	5	4	3	4
14	3	1	1	2	4	5
15	4	4	2	2	4	1
16	7	3	5	3	1	1
17	4	1	4	2	2	3
18	6	2	1	1	2	4
19	5	3	2	5	2	1
20	7	4	2	4	5	5
21	0	0	0	0	0	0
5	5	5	5	5
